data/MCDM/NO_CORR/GEN_FROM_60/12_ITEMS_1000_GEN/K5012W09.KNP.mps
NAME          BLANK   
ROWS
 N  OBJROW
 L  R0000000
COLUMNS
    C0000000  OBJROW     -10.          R0000000  543.        
    C0000001  OBJROW     -144.         R0000000  430.        
    C0000002  OBJROW     -410.         R0000000  914.        
    C0000003  OBJROW     -415.         R0000000  118.        
    C0000004  OBJROW     -866.         R0000000  150.        
    C0000005  OBJROW     -771.         R0000000  678.        
    C0000006  OBJROW     -953.         R0000000  223.        
    C0000007  OBJROW     -667.         R0000000  511.        
    C0000008  OBJROW     -448.         R0000000  67.         
    C0000009  OBJROW     -625.         R0000000  120.        
    C0000010  OBJROW     -432.         R0000000  492.        
    C0000011  OBJROW     -633.         R0000000  79.         
RHS
    RHS       R0000000  14716.      
BOUNDS
 BV BOUND     C0000000  1.          
 BV BOUND     C0000001  1.          
 BV BOUND     C0000002  1.          
 BV BOUND     C0000003  1.          
 BV BOUND     C0000004  1.          
 BV BOUND     C0000005  1.          
 BV BOUND     C0000006  1.          
 BV BOUND     C0000007  1.          
 BV BOUND     C0000008  1.          
 BV BOUND     C0000009  1.          
 BV BOUND     C0000010  1.          
 BV BOUND     C0000011  1.          
ENDATA
