interdiction/MCDM/NO_CORR/GEN_FROM_60/12_ITEMS_1000_GEN/K5012W09.KNP.txt
N 12
M 13
LC 12
LC 13
LC 14
LC 15
LC 16
LC 17
LC 18
LC 19
LC 20
LC 21
LC 22
LC 23
LR 1
LR 2
LR 3
LR 4
LR 5
LR 6
LR 7
LR 8
LR 9
LR 10
LR 11
LR 12
LR 13
LO -10
LO -144
LO -410
LO -415
LO -866
LO -771
LO -953
LO -667
LO -448
LO -625
LO -432
LO -633
OS 1
IC 721
IC 798
IC 31
IC 564
IC 401
IC 741
IC 621
IC 955
IC 143
IC 276
IC 227
IC 119
IB 2799
